benchmark/results/graph__10-1000-0.10-03_18/graph__10-1000-0.10-03_18_QuintonOs_Benders_primal_sub.lp
\ This file has been generated by DOcplex
\ ENCODING=ISO-8859-1
\Problem name: Quinton Bounded Benders_primal_sub

Maximize
 obj: tau
Subject To
 c1: tau <= 0.001061571125
 c2: y_a0_proc_0 + y_a0_proc_1 - tau = 0
 c3: y_a0_proc_0 <= 0
 c4: y_a0_proc_1 <= 1
 c5: tau <= 0.000877192982
 c6: y_a1_proc_2 - tau = 0
 c7: y_a1_proc_2 <= 1
 c8: tau <= 0.001221001221
 c9: y_a2_proc_0 + y_a2_proc_1 + y_a2_proc_2 - tau = 0
 c10: y_a2_proc_0 <= 0
 c11: y_a2_proc_1 <= 1
 c12: y_a2_proc_2 <= 0
 c13: tau <= 0.001412429379
 c14: y_a3_proc_0 + y_a3_proc_1 + y_a3_proc_2 - tau = 0
 c15: y_a3_proc_0 <= 0
 c16: y_a3_proc_1 <= 0
 c17: y_a3_proc_2 <= 1
 c18: tau <= 0.002531645570
 c19: y_a4_proc_0 + y_a4_proc_2 - tau = 0
 c20: y_a4_proc_0 <= 1
 c21: y_a4_proc_2 <= 0
 c22: tau <= 0.004651162791
 c23: y_a5_proc_0 + y_a5_proc_1 + y_a5_proc_2 - tau = 0
 c24: y_a5_proc_0 <= 0
 c25: y_a5_proc_1 <= 0
 c26: y_a5_proc_2 <= 1
 c27: tau <= 0.001207729469
 c28: y_a6_proc_1 + y_a6_proc_2 - tau = 0
 c29: y_a6_proc_1 <= 0
 c30: y_a6_proc_2 <= 1
 c31: tau <= 0.001257861635
 c32: y_a7_proc_0 + y_a7_proc_1 + y_a7_proc_2 - tau = 0
 c33: y_a7_proc_0 <= 1
 c34: y_a7_proc_1 <= 0
 c35: y_a7_proc_2 <= 0
 c36: tau <= 0.001083423619
 c37: y_a8_proc_0 + y_a8_proc_1 - tau = 0
 c38: y_a8_proc_0 <= 0
 c39: y_a8_proc_1 <= 1
 c40: tau <= 0.000965250965
 c41: y_a9_proc_0 + y_a9_proc_1 + y_a9_proc_2 - tau = 0
 c42: y_a9_proc_0 <= 0
 c43: y_a9_proc_1 <= 1
 c44: y_a9_proc_2 <= 0
 c45: u_a0 - u_a1 - 1140 y_a1_proc_2 >= 0
 c46: u_a1 - u_a2 - 965 y_a2_proc_0 - 819 y_a2_proc_1 - 612 y_a2_proc_2 >= 0
 c47: u_a3 - u_a0 - 1192 y_a0_proc_0 - 942 y_a0_proc_1 >= -1
 c48: u_a4 - u_a3 - 1074 y_a3_proc_0 - 916 y_a3_proc_1 - 708 y_a3_proc_2 >= 0
 c49: u_a2 - u_a5 - 1209 y_a5_proc_0 - 909 y_a5_proc_1 - 215 y_a5_proc_2 >= 0
 c50: u_a1 - u_a6 - 926 y_a6_proc_1 - 828 y_a6_proc_2 >= 0
 c51: u_a5 - u_a7 - 795 y_a7_proc_0 - 1148 y_a7_proc_1 - 915 y_a7_proc_2 >= 0
 c52: u_a0 - u_a8 - 1129 y_a8_proc_0 - 923 y_a8_proc_1 >= 0
 c53: u_a9 - u_a3 - 1074 y_a3_proc_0 - 916 y_a3_proc_1 - 708 y_a3_proc_2 >= 0
 c54: u_a7 - u_a3 - 1074 y_a3_proc_0 - 916 y_a3_proc_1 - 708 y_a3_proc_2 >= 0
 c55: u_a8 - u_a6 - 926 y_a6_proc_1 - 828 y_a6_proc_2 >= 0
 c56: u_a6 - u_a9 - 1278 y_a9_proc_0 - 1036 y_a9_proc_1 - 963 y_a9_proc_2 >= 0
 c57: u_a8 - u_a2 - 965 y_a2_proc_0 - 819 y_a2_proc_1 - 612 y_a2_proc_2 >= 0
 c58: u_a7 - u_a0 - 1192 y_a0_proc_0 - 942 y_a0_proc_1 >= -1
 c59: u_a2 - u_a0 - 942 y_a0_proc_1 >= -1
 c60: u_a2 - u_a0 - 1192 y_a0_proc_0 >= -2557
 c61: u_a0 - u_a2 - 819 y_a2_proc_1 >= 0
 c62: u_a0 - u_a2 - 965 y_a2_proc_0 >= -2556
 c63: u_a3 - u_a0 - 942 y_a0_proc_1 >= -1266
 c64: u_a3 - u_a0 - 1192 y_a0_proc_0 >= -2544
 c65: u_a0 - u_a3 - 916 y_a3_proc_1 >= -1291
 c66: u_a0 - u_a3 - 1074 y_a3_proc_0 >= -2569
 c67: u_a4 - u_a0 - 1192 y_a0_proc_0 >= -1291
 c68: u_a0 - u_a4 - 395 y_a4_proc_0 >= -1266
 c69: u_a5 - u_a0 - 942 y_a0_proc_1 >= -1291
 c70: u_a5 - u_a0 - 1192 y_a0_proc_0 >= -2569
 c71: u_a0 - u_a5 - 909 y_a5_proc_1 >= -1266
 c72: u_a0 - u_a5 - 1209 y_a5_proc_0 >= -2544
 c73: u_a6 - u_a0 - 942 y_a0_proc_1 >= -1291
 c74: u_a0 - u_a6 - 926 y_a6_proc_1 >= -1266
 c75: u_a7 - u_a0 - 942 y_a0_proc_1 >= -1291
 c76: u_a7 - u_a0 - 1192 y_a0_proc_0 >= -1291
 c77: u_a0 - u_a7 - 1148 y_a7_proc_1 >= -1266
 c78: u_a0 - u_a7 - 795 y_a7_proc_0 >= -1266
 c79: u_a8 - u_a0 - 942 y_a0_proc_1 >= -1
 c80: u_a8 - u_a0 - 1192 y_a0_proc_0 >= -2557
 c81: u_a0 - u_a8 - 923 y_a8_proc_1 >= 0
 c82: u_a0 - u_a8 - 1129 y_a8_proc_0 >= -2556
 c83: u_a9 - u_a0 - 942 y_a0_proc_1 >= -1
 c84: u_a9 - u_a0 - 1192 y_a0_proc_0 >= -2557
 c85: u_a0 - u_a9 - 1036 y_a9_proc_1 >= 0
 c86: u_a0 - u_a9 - 1278 y_a9_proc_0 >= -2556
 c87: u_a2 - u_a1 - 1140 y_a1_proc_2 >= -1291
 c88: u_a1 - u_a2 - 612 y_a2_proc_2 >= -1266
 c89: u_a3 - u_a1 - 1140 y_a1_proc_2 >= -1
 c90: u_a1 - u_a3 - 708 y_a3_proc_2 >= 0
 c91: u_a4 - u_a1 - 1140 y_a1_proc_2 >= -1266
 c92: u_a1 - u_a4 - 905 y_a4_proc_2 >= -1291
 c93: u_a5 - u_a1 - 1140 y_a1_proc_2 >= -1
 c94: u_a1 - u_a5 - 215 y_a5_proc_2 >= 0
 c95: u_a6 - u_a1 - 1140 y_a1_proc_2 >= -1
 c96: u_a1 - u_a6 - 828 y_a6_proc_2 >= 0
 c97: u_a7 - u_a1 - 1140 y_a1_proc_2 >= -1291
 c98: u_a1 - u_a7 - 915 y_a7_proc_2 >= -1266
 c99: u_a9 - u_a1 - 1140 y_a1_proc_2 >= -1266
 c100: u_a1 - u_a9 - 963 y_a9_proc_2 >= -1291
 c101: u_a3 - u_a2 - 612 y_a2_proc_2 >= -1266
 c102: u_a3 - u_a2 - 819 y_a2_proc_1 >= -1266
 c103: u_a3 - u_a2 - 965 y_a2_proc_0 >= -2544
 c104: u_a2 - u_a3 - 708 y_a3_proc_2 >= -1291
 c105: u_a2 - u_a3 - 916 y_a3_proc_1 >= -1291
 c106: u_a2 - u_a3 - 1074 y_a3_proc_0 >= -2569
 c107: u_a4 - u_a2 - 612 y_a2_proc_2 >= -2544
 c108: u_a4 - u_a2 - 965 y_a2_proc_0 >= -1266
 c109: u_a2 - u_a4 - 905 y_a4_proc_2 >= -2569
 c110: u_a2 - u_a4 - 395 y_a4_proc_0 >= -1291
 c111: u_a5 - u_a2 - 612 y_a2_proc_2 >= -1291
 c112: u_a5 - u_a2 - 819 y_a2_proc_1 >= -1291
 c113: u_a5 - u_a2 - 965 y_a2_proc_0 >= -2569
 c114: u_a2 - u_a5 - 215 y_a5_proc_2 >= -1266
 c115: u_a2 - u_a5 - 909 y_a5_proc_1 >= -1266
 c116: u_a2 - u_a5 - 1209 y_a5_proc_0 >= -2544
 c117: u_a6 - u_a2 - 612 y_a2_proc_2 >= -1291
 c118: u_a6 - u_a2 - 819 y_a2_proc_1 >= -1291
 c119: u_a2 - u_a6 - 828 y_a6_proc_2 >= -1266
 c120: u_a2 - u_a6 - 926 y_a6_proc_1 >= -1266
 c121: u_a7 - u_a2 - 612 y_a2_proc_2 >= -2569
 c122: u_a7 - u_a2 - 819 y_a2_proc_1 >= -1291
 c123: u_a7 - u_a2 - 965 y_a2_proc_0 >= -1291
 c124: u_a2 - u_a7 - 915 y_a7_proc_2 >= -2544
 c125: u_a2 - u_a7 - 1148 y_a7_proc_1 >= -1266
 c126: u_a2 - u_a7 - 795 y_a7_proc_0 >= -1266
 c127: u_a8 - u_a2 - 819 y_a2_proc_1 >= 0
 c128: u_a8 - u_a2 - 965 y_a2_proc_0 >= -2556
 c129: u_a2 - u_a8 - 923 y_a8_proc_1 >= -1
 c130: u_a2 - u_a8 - 1129 y_a8_proc_0 >= -2557
 c131: u_a9 - u_a2 - 612 y_a2_proc_2 >= -2557
 c132: u_a9 - u_a2 - 819 y_a2_proc_1 >= -1
 c133: u_a9 - u_a2 - 965 y_a2_proc_0 >= -2557
 c134: u_a2 - u_a9 - 963 y_a9_proc_2 >= -2556
 c135: u_a2 - u_a9 - 1036 y_a9_proc_1 >= 0
 c136: u_a2 - u_a9 - 1278 y_a9_proc_0 >= -2556
 c137: u_a4 - u_a3 - 708 y_a3_proc_2 >= -1291
 c138: u_a4 - u_a3 - 1074 y_a3_proc_0 >= -1291
 c139: u_a3 - u_a4 - 905 y_a4_proc_2 >= -1266
 c140: u_a3 - u_a4 - 395 y_a4_proc_0 >= -1266
 c141: u_a5 - u_a3 - 708 y_a3_proc_2 >= 0
 c142: u_a5 - u_a3 - 916 y_a3_proc_1 >= -2556
 c143: u_a5 - u_a3 - 1074 y_a3_proc_0 >= -2556
 c144: u_a3 - u_a5 - 215 y_a5_proc_2 >= -1
 c145: u_a3 - u_a5 - 909 y_a5_proc_1 >= -2557
 c146: u_a3 - u_a5 - 1209 y_a5_proc_0 >= -2557
 c147: u_a6 - u_a3 - 708 y_a3_proc_2 >= 0
 c148: u_a6 - u_a3 - 916 y_a3_proc_1 >= -2556
 c149: u_a3 - u_a6 - 828 y_a6_proc_2 >= -1
 c150: u_a3 - u_a6 - 926 y_a6_proc_1 >= -2557
 c151: u_a7 - u_a3 - 708 y_a3_proc_2 >= -1291
 c152: u_a7 - u_a3 - 916 y_a3_proc_1 >= -2569
 c153: u_a7 - u_a3 - 1074 y_a3_proc_0 >= -1291
 c154: u_a3 - u_a7 - 915 y_a7_proc_2 >= -1266
 c155: u_a3 - u_a7 - 1148 y_a7_proc_1 >= -2544
 c156: u_a3 - u_a7 - 795 y_a7_proc_0 >= -1266
 c157: u_a8 - u_a3 - 916 y_a3_proc_1 >= -1291
 c158: u_a8 - u_a3 - 1074 y_a3_proc_0 >= -2569
 c159: u_a3 - u_a8 - 923 y_a8_proc_1 >= -1266
 c160: u_a3 - u_a8 - 1129 y_a8_proc_0 >= -2544
 c161: u_a9 - u_a3 - 708 y_a3_proc_2 >= -1291
 c162: u_a9 - u_a3 - 916 y_a3_proc_1 >= -1291
 c163: u_a9 - u_a3 - 1074 y_a3_proc_0 >= -2569
 c164: u_a3 - u_a9 - 963 y_a9_proc_2 >= -1266
 c165: u_a3 - u_a9 - 1036 y_a9_proc_1 >= -1266
 c166: u_a3 - u_a9 - 1278 y_a9_proc_0 >= -2544
 c167: u_a5 - u_a4 - 905 y_a4_proc_2 >= -1291
 c168: u_a5 - u_a4 - 395 y_a4_proc_0 >= -1291
 c169: u_a4 - u_a5 - 215 y_a5_proc_2 >= -1266
 c170: u_a4 - u_a5 - 1209 y_a5_proc_0 >= -1266
 c171: u_a6 - u_a4 - 905 y_a4_proc_2 >= -1266
 c172: u_a4 - u_a6 - 828 y_a6_proc_2 >= -1291
 c173: u_a7 - u_a4 - 905 y_a4_proc_2 >= -2557
 c174: u_a7 - u_a4 - 395 y_a4_proc_0 >= -1
 c175: u_a4 - u_a7 - 915 y_a7_proc_2 >= -2556
 c176: u_a4 - u_a7 - 795 y_a7_proc_0 >= 0
 c177: u_a8 - u_a4 - 395 y_a4_proc_0 >= -1266
 c178: u_a4 - u_a8 - 1129 y_a8_proc_0 >= -1291
 c179: u_a9 - u_a4 - 905 y_a4_proc_2 >= -2569
 c180: u_a9 - u_a4 - 395 y_a4_proc_0 >= -1291
 c181: u_a4 - u_a9 - 963 y_a9_proc_2 >= -2544
 c182: u_a4 - u_a9 - 1278 y_a9_proc_0 >= -1266
 c183: u_a6 - u_a5 - 215 y_a5_proc_2 >= 0
 c184: u_a6 - u_a5 - 909 y_a5_proc_1 >= -2556
 c185: u_a5 - u_a6 - 828 y_a6_proc_2 >= -1
 c186: u_a5 - u_a6 - 926 y_a6_proc_1 >= -2557
 c187: u_a7 - u_a5 - 215 y_a5_proc_2 >= -1291
 c188: u_a7 - u_a5 - 909 y_a5_proc_1 >= -2569
 c189: u_a7 - u_a5 - 1209 y_a5_proc_0 >= -1291
 c190: u_a5 - u_a7 - 915 y_a7_proc_2 >= -1266
 c191: u_a5 - u_a7 - 1148 y_a7_proc_1 >= -2544
 c192: u_a5 - u_a7 - 795 y_a7_proc_0 >= -1266
 c193: u_a8 - u_a5 - 909 y_a5_proc_1 >= -1291
 c194: u_a8 - u_a5 - 1209 y_a5_proc_0 >= -2569
 c195: u_a5 - u_a8 - 923 y_a8_proc_1 >= -1266
 c196: u_a5 - u_a8 - 1129 y_a8_proc_0 >= -2544
 c197: u_a9 - u_a5 - 215 y_a5_proc_2 >= -1291
 c198: u_a9 - u_a5 - 909 y_a5_proc_1 >= -1291
 c199: u_a9 - u_a5 - 1209 y_a5_proc_0 >= -2569
 c200: u_a5 - u_a9 - 963 y_a9_proc_2 >= -1266
 c201: u_a5 - u_a9 - 1036 y_a9_proc_1 >= -1266
 c202: u_a5 - u_a9 - 1278 y_a9_proc_0 >= -2544
 c203: u_a7 - u_a6 - 828 y_a6_proc_2 >= -1291
 c204: u_a7 - u_a6 - 926 y_a6_proc_1 >= -2569
 c205: u_a6 - u_a7 - 915 y_a7_proc_2 >= -1266
 c206: u_a6 - u_a7 - 1148 y_a7_proc_1 >= -2544
 c207: u_a8 - u_a6 - 926 y_a6_proc_1 >= -1291
 c208: u_a6 - u_a8 - 923 y_a8_proc_1 >= -1266
 c209: u_a9 - u_a6 - 828 y_a6_proc_2 >= -1291
 c210: u_a9 - u_a6 - 926 y_a6_proc_1 >= -1291
 c211: u_a6 - u_a9 - 963 y_a9_proc_2 >= -1266
 c212: u_a6 - u_a9 - 1036 y_a9_proc_1 >= -1266
 c213: u_a8 - u_a7 - 1148 y_a7_proc_1 >= -1291
 c214: u_a8 - u_a7 - 795 y_a7_proc_0 >= -1291
 c215: u_a7 - u_a8 - 923 y_a8_proc_1 >= -1266
 c216: u_a7 - u_a8 - 1129 y_a8_proc_0 >= -1266
 c217: u_a9 - u_a7 - 915 y_a7_proc_2 >= -2544
 c218: u_a9 - u_a7 - 1148 y_a7_proc_1 >= -1266
 c219: u_a9 - u_a7 - 795 y_a7_proc_0 >= -1266
 c220: u_a7 - u_a9 - 963 y_a9_proc_2 >= -2569
 c221: u_a7 - u_a9 - 1036 y_a9_proc_1 >= -1291
 c222: u_a7 - u_a9 - 1278 y_a9_proc_0 >= -1291
 c223: u_a9 - u_a8 - 923 y_a8_proc_1 >= -1
 c224: u_a9 - u_a8 - 1129 y_a8_proc_0 >= -2557
 c225: u_a8 - u_a9 - 1036 y_a9_proc_1 >= 0
 c226: u_a8 - u_a9 - 1278 y_a9_proc_0 >= -2556

Bounds
End
